Optimal - objective value 4915.00000000
      0 y_0_2                     1                     222
      7 y_1_12                    1                     570
     10 y_2_4                     1                     439
     11 y_2_8                     1                     554
     13 y_2_15                    1                      77
     14 y_3_4                     1                      64
     15 y_3_6                     1                     423
     22 y_4_12                    1                     275
     27 y_5_14                    1                     516
     35 y_8_13                    1                     341
     36 y_9_11                    1                     330
     38 y_10_11                   1                     342
     39 y_10_14                   1                     762
     43 f_0_6_3_0                 3                       0
     53 f_0_3_4_1                 3                       0
     93 f_0_4_2_2                 3                       0
    152 f_0_2_0_3                 3                       0
    157 f_1_6_3_0                 2                       0
    167 f_1_3_4_1                 2                       0
    276 f_2_13_8_0                2                       0
    291 f_2_8_2_1                 2                       0
    341 f_2_2_15_2                2                       0
    400 f_3_11_10_0               4                       0
    432 f_3_10_14_1               4                       0
    521 f_4_13_8_0                2                       0
    536 f_4_8_2_1                 2                       0
    586 f_4_2_15_2                2                       0
    646 f_5_5_14_0                1                       0
    672 f_5_14_10_1               1                       0
    737 f_5_10_11_2               1                       0
    749 f_5_11_9_3                1                       0
    751 f_6_3_4_0                 1                       0
    756 f_6_4_2_1                 1                       0
    796 f_6_2_8_2                 1                       0
    855 f_7_15_2_0                1                       0
    867 f_7_2_4_1                 1                       0
    914 f_7_4_12_2                1                       0
    951 f_8_1_12_0                2                       0
    969 f_8_12_4_1                2                       0
   1007 f_8_4_3_2                 2                       0
   1062 f_9_8_2_0                 1                       0
   1068 f_9_2_0_1                 1                       0
